1 10 30
2897
  2.7  0.06  15.5 13243.2   0.0
 0.04 7945.9  13.1
 0.07 13218.5  21.8
 0.05 9980.5  16.5
 0.05 9329.3  15.4
 0.06 11590.1  19.1
 0.08 15606.3  25.7
 0.07 14219.0  23.5
 0.05 10763.6  17.8
 0.09 17906.0  29.5
 0.09 17398.3  28.7
  595
 1330
 1436
  825
 1135
 1375
  853
 1185
  937
 1448
 1044
 1133
 1228
  992
 1211
 1414
  758
  769
  879
 1004
 1487
 1297
  799
 1269
  628
 1326
 1220
  961
  689
  949
